\* Problem: Unknown *\

Maximize
 obj: + xp_0_0 + xp_0_1 + xp_0_2 + xp_1_0 + xp_1_1 + xp_1_2 + xp_1_3
 + xp_1_4 + xp_1_5 + xp_1_6 + xp_1_7 + xp_1_8 + xp_2_0 + xp_2_1 + xp_2_2
 + xp_2_3 + xp_2_4 + xp_2_5 + xp_2_6 + xp_2_7 + xp_2_8 + xp_2_9
 + xp_2_10 + xp_3_0 + xp_3_1 + xp_3_2 + xp_3_3 + xp_3_4 + xp_3_5
 + xp_3_6 + xp_3_7 + xp_3_8 + xp_3_9 + xp_4_0 + xp_4_1 + xp_5_0 + xp_5_1
 + xp_5_2 + xp_5_3 + xp_6_0 + xp_6_1 + xp_6_2 + xp_7_0 + xp_8_0 + xp_8_1
 + xp_8_2 + xp_9_0 + xp_9_1 + xp_9_2 + xp_10_0 + xp_10_1 + xp_10_2
 + xp_10_3 + xp_10_4 + xp_10_5 + xp_11_0 + xp_11_1 + xp_11_2 + xp_12_0
 + xp_13_0 + xp_13_1 + xp_13_2 + xp_13_3 + xp_14_0 + xp_14_1 + xp_14_2
 + xp_14_3 + xp_14_4 + xp_14_5 + xp_14_6 + xp_14_7 + xp_14_8 + xp_15_0
 + xp_15_1 + xp_15_2 + xp_15_3 + xp_16_0 + xp_16_1 + xp_17_0 + xp_17_1
 + xp_17_2 + xp_17_3 + xp_17_4 + xp_17_5 + xp_18_0 + xp_18_1 + xp_18_2
 + xp_18_3 + xp_18_4 + xp_18_5 + xp_18_6 + xp_18_7 + xp_19_0 + xp_19_1
 + xp_19_2 + xp_19_3 + xp_19_4 + xp_19_5 + xp_19_6 + xp_19_7 + xp_19_8
 + xp_19_9 + xp_19_10 + xp_19_11 + xp_20_0 + xp_20_1 + xp_20_2 + xp_20_3
 + xp_20_4 + xp_20_5 + xp_20_6 + xp_21_0 + xp_21_1 + xp_21_2 + xp_21_3

Subject To
 r_1: + xp_20_0 <= 0.862348178137652
 r_2: + xp_10_0 + xp_2_1 <= 0.855803571428571
 r_3: + xp_20_2 + xp_10_4 <= 0.839243498817967
 r_4: + xp_20_4 + xp_19_5 + xp_18_0 + xp_11_2 + xp_10_2 + xp_2_8
 <= 0.841987179487179
 r_5: + xp_21_2 + xp_20_5 + xp_19_11 + xp_11_1 + xp_10_5 + xp_10_3
 + xp_3_2 + xp_2_6 + xp_1_7 <= 0.839243498817967
 r_6: + xp_19_7 + xp_11_0 <= 0.846459537572254
 r_7: + xp_20_6 + xp_20_3 + xp_18_5 + xp_10_1 + xp_1_8
 <= 0.850638977635783
 r_8: + xp_20_1 <= 0.840109223300971
 r_9: + xp_2_0 <= 0.855803571428571
 r_10: 0 xp_0_0 <= 0.839243498817967
 r_11: + xp_1_3 <= 0.850638977635783
 r_12: 0 xp_0_0 <= 0.840109223300971
 r_13: 0 xp_0_0 <= 0.846459537572254
 r_14: + xp_2_9 <= 0.841987179487179
 r_15: + xp_3_3 + xp_1_5 <= 0.839243498817967
 r_16: + xp_13_1 <= 0.862348178137652
 r_17: 0 xp_0_0 <= 0.862348178137652
 r_18: + xp_19_0 + xp_6_1 <= 0.846459537572254
 r_19: + xp_17_4 + xp_14_8 + xp_14_5 + xp_14_3 <= 0.862348178137652
 r_20: + xp_3_9 + xp_1_2 <= 0.845238095238095
 r_21: 0 xp_0_0 <= 0.839243498817967
 r_22: + xp_3_8 + xp_2_5 + xp_0_2 <= 0.841987179487179
 r_23: 0 xp_0_0 <= 0.840109223300971
 r_24: 0 xp_0_0 <= 0.840109223300971
 r_25: 0 xp_0_0 <= 0.839243498817967
 r_26: + xp_17_0 + xp_15_3 + xp_14_6 <= 0.839243498817967
 r_27: + xp_20_5 + xp_17_4 + xp_14_8 + xp_1_7 + xp_1_5 + xp_1_0
 <= 0.845238095238095
 r_28: + xp_4_1 <= 0.839243498817967
 r_29: + xp_17_1 + xp_10_3 + xp_5_2 + xp_2_6 + xp_2_3
 <= 0.855803571428571
 r_30: + xp_19_10 + xp_18_4 + xp_18_1 + xp_17_3 + xp_10_5
 <= 0.841987179487179
 r_31: + xp_17_5 <= 0.850638977635783
 r_32: + xp_19_11 + xp_19_9 + xp_19_1 + xp_17_2 + xp_11_1
 <= 0.846459537572254
 r_33: + xp_21_1 + xp_13_3 + xp_2_10 + xp_1_4 <= 0.845238095238095
 r_34: + xp_13_0 <= 0.846459537572254
 r_35: + xp_17_2 + xp_13_1 <= 0.846459537572254
 r_36: + xp_21_3 + xp_13_2 + xp_2_7 <= 0.841987179487179
 r_37: + xp_21_2 + xp_9_1 <= 0.846459537572254
 r_38: 0 xp_0_0 <= 0.840109223300971
 r_39: + xp_21_0 + xp_3_1 <= 0.846459537572254
 r_40: + xp_19_8 + xp_18_6 <= 0.841987179487179
 r_41: 0 xp_0_0 <= 0.855803571428571
 r_42: + xp_17_1 + xp_15_1 + xp_14_1 + xp_8_2 <= 0.855803571428571
 r_43: 0 xp_0_0 <= 0.845238095238095
 r_44: 0 xp_0_0 <= 0.839243498817967
 r_45: 0 xp_0_0 <= 0.855803571428571
 r_46: 0 xp_0_0 <= 0.850638977635783
 r_47: + xp_19_6 + xp_6_0 <= 0.845238095238095
 r_48: + xp_19_3 + xp_18_7 + xp_18_2 + xp_6_2 + xp_5_1
 <= 0.841987179487179
 r_49: 0 xp_0_0 <= 0.839243498817967
 r_50: + xp_20_5 + xp_20_3 + xp_17_4 + xp_16_1 + xp_14_8 + xp_14_5
 + xp_13_3 + xp_6_1 <= 0.845238095238095
 r_51: + xp_21_1 + xp_18_4 + xp_5_2 + xp_3_9 + xp_3_7
 <= 0.845238095238095
 r_52: + xp_5_0 + xp_2_10 <= 0.845238095238095
 r_53: + xp_14_7 + xp_5_3 <= 0.850638977635783
 r_54: + xp_10_5 + xp_10_2 + xp_8_2 + xp_5_1 + xp_2_9 + xp_2_8 + xp_2_7
 + xp_2_5 <= 0.841987179487179
 r_55: + xp_16_1 + xp_7_0 <= 0.841987179487179
 r_56: + xp_19_10 + xp_19_8 + xp_19_5 + xp_19_4 + xp_19_3 + xp_11_2
 + xp_6_2 <= 0.841987179487179
 r_57: 0 xp_0_0 <= 0.841987179487179
 r_58: + xp_17_3 + xp_15_2 + xp_14_4 + xp_8_0 <= 0.841987179487179
 r_59: + xp_20_6 + xp_20_4 + xp_16_0 + xp_13_2 <= 0.841987179487179
 r_60: + xp_21_3 + xp_3_8 <= 0.841987179487179
 r_61: + xp_8_1 + xp_0_2 <= 0.850638977635783
 r_62: + xp_19_6 + xp_19_3 + xp_18_4 + xp_18_2 + xp_14_7 + xp_14_5
 + xp_3_7 + xp_1_1 <= 0.839243498817967
 r_63: + xp_19_11 + xp_19_7 + xp_19_5 + xp_18_5 + xp_18_0 + xp_9_2
 <= 0.839243498817967
 r_64: + xp_14_0 <= 0.839243498817967
 r_65: + xp_20_2 + xp_19_0 + xp_14_3 <= 0.839243498817967
 r_66: + xp_19_1 + xp_18_1 + xp_14_8 + xp_14_6 + xp_3_5
 <= 0.839243498817967
 r_67: + xp_19_8 + xp_18_6 + xp_14_1 + xp_10_4 + xp_2_2
 <= 0.839243498817967
 r_68: + xp_19_10 + xp_19_9 + xp_19_4 + xp_18_7 + xp_18_3 + xp_14_4
 + xp_14_2 + xp_3_6 + xp_0_1 <= 0.850638977635783
 r_69: + xp_19_2 <= 0.840109223300971
 r_70: 0 xp_0_0 <= 0.840109223300971
 r_71: + xp_17_5 + xp_15_0 + xp_14_7 + xp_14_2 + xp_8_1
 <= 0.850638977635783
 r_72: 0 xp_0_0 <= 0.850638977635783
 r_73: + xp_19_10 + xp_19_9 + xp_15_3 + xp_4_1 + xp_3_6 + xp_3_4
 <= 0.850638977635783
 r_74: + xp_15_1 + xp_10_1 + xp_5_3 + xp_2_4 <= 0.850638977635783
 r_75: + xp_20_3 + xp_18_7 + xp_1_8 + xp_1_6 + xp_1_3
 <= 0.850638977635783
 r_76: + xp_20_6 + xp_19_4 + xp_18_5 + xp_18_3 + xp_15_2 + xp_14_4
 <= 0.850638977635783
 r_77: + xp_4_0 <= 0.850638977635783
 r_78: + xp_3_0 + xp_2_3 + xp_1_0 <= 0.840109223300971
 r_79: + xp_3_4 + xp_2_4 + xp_1_6 + xp_0_0 <= 0.840109223300971
 r_80: + xp_3_3 + xp_2_9 + xp_2_0 + xp_1_5 + xp_1_3 <= 0.840109223300971
 r_81: + xp_9_0 + xp_3_2 + xp_2_8 + xp_2_6 + xp_2_1 + xp_1_8 + xp_1_7
 <= 0.840109223300971
 r_82: + xp_20_1 + xp_3_9 + xp_3_8 + xp_2_5 + xp_1_2 + xp_0_2
 <= 0.840109223300971
 r_83: + xp_19_2 + xp_12_0 + xp_9_1 + xp_3_1 + xp_2_10 + xp_2_7 + xp_1_4
 <= 0.840109223300971
 r_84: + xp_9_2 + xp_3_7 + xp_3_6 + xp_3_5 + xp_2_2 + xp_1_1 + xp_0_1
 <= 0.840109223300971

Bounds
 0 <= xp_0_0 <= 0.666666666666667
 0 <= xp_0_1 <= 0.0606060606060606
 0 <= xp_0_2 <= 0.181818181818182
 0 <= xp_1_0 <= 0.121212121212121
 0 <= xp_1_1 <= 0.333333333333333
 0 <= xp_1_2 <= 0.363636363636364
 0 <= xp_1_3 <= 0.0909090909090909
 0 <= xp_1_4 <= 0.181818181818182
 0 <= xp_1_5 <= 0.0303030303030303
 0 <= xp_1_6 <= 0.181818181818182
 0 <= xp_1_7 <= 0.0303030303030303
 0 <= xp_1_8 <= 0.0303030303030303
 0 <= xp_2_0 <= 0.606060606060606
 0 <= xp_2_1 <= 0.242424242424242
 0 <= xp_2_2 <= 0.151515151515152
 0 <= xp_2_3 <= 0.0303030303030303
 0 <= xp_2_4 <= 0.0303030303030303
 0 <= xp_2_5 <= 0.0606060606060606
 0 <= xp_2_6 <= 0.0303030303030303
 0 <= xp_2_7 <= 0.0909090909090909
 0 <= xp_2_8 <= 0.0303030303030303
 0 <= xp_2_9 <= 0.0606060606060606
 0 <= xp_2_10 <= 0.0303030303030303
 0 <= xp_3_0 <= 0.848484848484849
 0 <= xp_3_1 <= 0.0606060606060606
 0 <= xp_3_2 <= 0.181818181818182
 0 <= xp_3_3 <= 0.181818181818182
 0 <= xp_3_4 <= 0.0606060606060606
 0 <= xp_3_5 <= 0.181818181818182
 0 <= xp_3_6 <= 0.0606060606060606
 0 <= xp_3_7 <= 0.0606060606060606
 0 <= xp_3_8 <= 0.121212121212121
 0 <= xp_3_9 <= 0.0606060606060606
 0 <= xp_4_0 <= 0.393939393939394
 0 <= xp_4_1 <= 0.0606060606060606
 0 <= xp_5_0 <= 0.606060606060606
 0 <= xp_5_1 <= 0.121212121212121
 0 <= xp_5_2 <= 0.0606060606060606
 0 <= xp_5_3 <= 0.121212121212121
 0 <= xp_6_0 <= 0.666666666666667
 0 <= xp_6_1 <= 0.0606060606060606
 0 <= xp_6_2 <= 0.181818181818182
 0 <= xp_7_0 <= 0.454545454545455
 0 <= xp_8_0 <= 0.272727272727273
 0 <= xp_8_1 <= 0.121212121212121
 0 <= xp_8_2 <= 0.0606060606060606
 0 <= xp_9_0 <= 0.333333333333333
 0 <= xp_9_1 <= 0.0606060606060606
 0 <= xp_9_2 <= 0.0606060606060606
 0 <= xp_10_0 <= 0.545454545454545
 0 <= xp_10_1 <= 0.424242424242424
 0 <= xp_10_2 <= 0.0909090909090909
 0 <= xp_10_3 <= 0.121212121212121
 0 <= xp_10_4 <= 0.151515151515152
 0 <= xp_10_5 <= 0.0303030303030303
 0 <= xp_11_0 <= 0.727272727272727
 0 <= xp_11_1 <= 0.121212121212121
 0 <= xp_11_2 <= 0.0606060606060606
 0 <= xp_12_0 <= 0.454545454545455
 0 <= xp_13_0 <= 0.848484848484849
 0 <= xp_13_1 <= 0.727272727272727
 0 <= xp_13_2 <= 0.121212121212121
 0 <= xp_13_3 <= 0.121212121212121
 0 <= xp_14_0 <= 0.939393939393939
 0 <= xp_14_1 <= 0.363636363636364
 0 <= xp_14_2 <= 0.242424242424242
 0 <= xp_14_3 <= 0.333333333333333
 0 <= xp_14_4 <= 0.0303030303030303
 0 <= xp_14_5 <= 0.0606060606060606
 0 <= xp_14_6 <= 0.121212121212121
 0 <= xp_14_7 <= 0.121212121212121
 0 <= xp_14_8 <= 0.0606060606060606
 0 <= xp_15_0 <= 0.303030303030303
 0 <= xp_15_1 <= 0.0606060606060606
 0 <= xp_15_2 <= 0.303030303030303
 0 <= xp_15_3 <= 0.242424242424242
 0 <= xp_16_0 <= 0.393939393939394
 0 <= xp_16_1 <= 0.0606060606060606
 0 <= xp_17_0 <= 0.515151515151515
 0 <= xp_17_1 <= 0.333333333333333
 0 <= xp_17_2 <= 0.0909090909090909
 0 <= xp_17_3 <= 0.242424242424242
 0 <= xp_17_4 <= 0.121212121212121
 0 <= xp_17_5 <= 0.0606060606060606
 0 <= xp_18_0 <= 0.121212121212121
 0 <= xp_18_1 <= 0.0909090909090909
 0 <= xp_18_2 <= 0.0303030303030303
 0 <= xp_18_3 <= 0.0606060606060606
 0 <= xp_18_4 <= 0.0303030303030303
 0 <= xp_18_5 <= 0.0303030303030303
 0 <= xp_18_6 <= 0.0606060606060606
 0 <= xp_18_7 <= 0.0303030303030303
 0 <= xp_19_0 <= 0.121212121212121
 0 <= xp_19_1 <= 0.333333333333333
 0 <= xp_19_2 <= 0.0303030303030303
 0 <= xp_19_3 <= 0.0606060606060606
 0 <= xp_19_4 <= 0.121212121212121
 0 <= xp_19_5 <= 0.181818181818182
 0 <= xp_19_6 <= 0.0909090909090909
 0 <= xp_19_7 <= 0.121212121212121
 0 <= xp_19_8 <= 0.0909090909090909
 0 <= xp_19_9 <= 0.121212121212121
 0 <= xp_19_10 <= 0.0303030303030303
 0 <= xp_19_11 <= 0.0606060606060606
 0 <= xp_20_0 <= 0.96969696969697
 0 <= xp_20_1 <= 0.181818181818182
 0 <= xp_20_2 <= 0.424242424242424
 0 <= xp_20_3 <= 0.242424242424242
 0 <= xp_20_4 <= 0.303030303030303
 0 <= xp_20_5 <= 0.121212121212121
 0 <= xp_20_6 <= 0.0303030303030303
 0 <= xp_21_0 <= 0.636363636363636
 0 <= xp_21_1 <= 0.272727272727273
 0 <= xp_21_2 <= 0.0606060606060606
 0 <= xp_21_3 <= 0.393939393939394

End
